############################## T =  5
Academic license - for non-commercial use only
Changed value of parameter lazyConstraints to 1
   Prev: 0  Min: 0  Max: 1  Default: 0
Optimize a model with 5279 rows, 105 columns and 19042 nonzeros
Model has 960 quadratic objective terms
Variable types: 0 continuous, 105 integer (105 binary)
Coefficient statistics:
  Matrix range     [1e+00, 1e+00]
  Objective range  [0e+00, 0e+00]
  QObjective range [1e+01, 3e+04]
  Bounds range     [1e+00, 1e+00]
  RHS range        [1e+00, 2e+00]
Found heuristic solution: objective 32205.000000
Presolve removed 807 rows and 10 columns
Presolve time: 0.02s
Presolved: 5432 rows, 1055 columns, 17956 nonzeros
Variable types: 0 continuous, 1055 integer (1055 binary)

Root relaxation: objective 0.000000e+00, 19 iterations, 0.01 seconds

    Nodes    |    Current Node    |     Objective Bounds      |     Work
 Expl Unexpl |  Obj  Depth IntInf | Incumbent    BestBd   Gap | It/Node Time

     0     0    0.00000    0   10 32205.0000    0.00000   100%     -    0s
     0     0    0.00000    0   10 32205.0000    0.00000   100%     -    0s
     0     0    0.00000    0   10 32205.0000    0.00000   100%     -    0s
     0     0    0.00000    0   10 32205.0000    0.00000   100%     -    0s
     0     0    0.00000    0   12 32205.0000    0.00000   100%     -    0s
     0     0    0.00000    0   10 32205.0000    0.00000   100%     -    0s
H    0     0                    31888.000000    0.00000   100%     -    0s
     0     0    0.00000    0   10 31888.0000    0.00000   100%     -    0s
     0     0    0.00000    0   12 31888.0000    0.00000   100%     -    0s
     0     0    0.00000    0   12 31888.0000    0.00000   100%     -    0s
     0     2    0.00000    0   12 31888.0000    0.00000   100%     -    0s
H  250   185                    21777.000000 2519.00000  88.4%   7.1    1s
  1665   606 6319.50000   40    8 21777.0000 3184.63636  85.4%  10.7    5s
H 1975   569                    20940.000000 3184.63636  84.8%  10.3    5s
* 2022   549              41    20880.000000 3184.63636  84.7%  10.4    6s
* 2344   580              27    18605.000000 3527.35714  81.0%  10.2    6s
* 2345   578              27    18253.000000 3527.35714  80.7%  10.2    6s
H 3254   755                    17941.000000 4259.57143  76.3%   9.6    7s
H 4843   925                    17940.000000 5688.00000  68.3%   9.6    9s
  5317   974 infeasible   35      17940.0000 6220.00000  65.3%   9.7   10s
  9955   553 11172.3333   30   20 17940.0000 11172.3333  37.7%   9.2   15s

Cutting planes:
  Gomory: 2
  Flow cover: 3
  Zero half: 7

Explored 11758 nodes (103322 simplex iterations) in 16.67 seconds
Thread count was 4 (of 4 available processors)

Solution count 9: 17940 17941 18253 ... 32205

Optimal solution found (tolerance 1.00e-04)
Best objective 1.794000000000e+04, best bound 1.794000000000e+04, gap 0.0000%

Optimal cost: 17940
print out solution in ascending timestep
timestep  0 :  130733
timestep  1 :  93272
timestep  2 :  52823
timestep  3 :  93072
timestep  4 :  95453
{(0, 0): 0.0, (0, 1): -0.0, (0, 2): 1.0, (0, 3): 1.0, (0, 4): 1.0, (1, 0): 0.0, (1, 1): -0.0, (1, 2): -0.0, (1, 3): -0.0, (1, 4): 1.0, (2, 0): 0.0, (2, 1): -0.0, (2, 2): -0.0, (2, 3): 1.0, (2, 4): 1.0, (3, 0): 0.0, (3, 1): -0.0, (3, 2): -0.0, (3, 3): 0.0, (3, 4): 1.0, (4, 0): 0.0, (4, 1): 1.0, (4, 2): 1.0, (4, 3): 1.0, (4, 4): 1.0}
SOLVED AT T =  5
